NAME : pr136.42570.tour
COMMENT : Length = 42570
COMMENT : Found by LKH [Keld Helsgaun] Wed May 29 17:05:41 2013
TYPE : TOUR
DIMENSION : 28
TOUR_SECTION
19
8
37
50
49
26
33
24
23
46
58
79
92
114
125
116
111
88
87
95
110
109
107
98
85
52
39
30
-1
EOF
